1111100 AB
350 370 390 405 420 435 450 466 482 498 514 537 561 585 609 633 657 681 701 721 741 761 781 802 823 844 865 886 907 928 949 970 991 1010 1029 1048 1066 1084 1102 1120 1138 1156 1174 1192 1210 1229 1248 1267 1285 1303 1321 1343 1377 1411 5
1111100 BA
350 370 390 410 432 454 473 491 506 521 537 553 570 588 610 634 658 682 706 730 754 774 794 814 834 854 875 896 917 937 957 978 999 1020 1041 1062 1081 1100 1119 1137 1154 1172 1189 1206 1224 1242 1260 1276 1293 1309 1327 1345 1363 1381 1403 1437 31 65
0000011 AB
350 385 420 455 492 529 566 603 639 675 711 747 779 806 833 860 899 937 976 1003 1030 1057 1084 1120 1156 1192 1230 1268 1305 1333 1362 1395 1429 22
0000011 BA
350 378 410 448 485 520 557 594 631 668 704 740 776 812 844 871 898 925 964 1002 1041 1068 1095 1122 1149 1185 1221 1257 1292 1328 1365 1393 1422 15 49
0000011 BA red
82
